c turning on binary mode checking
c parsing input formula with 259840 variables and 1039934 clauses
c finished parsing, read 23615981 bytes from proof file
c detected empty clause; start verification via backward checking
c 15155 of 1039934 clauses in core                            
c 20447 of 609031 lemmas in core using 157935 resolution steps
c 0 RAT lemmas in core; 1683 redundant literals in core lemmas
s VERIFIED
c verification time: 3.199 seconds
